c n orig vars 175
p cnf 269 463
-215 0
176 -27 0
176 -28 0
176 -62 0
176 -61 0
176 -18 0
176 -60 0
176 -59 0
176 -58 0
176 -57 0
176 -56 0
176 -55 0
-176 27 28 62 61 18 60 59 58 57 56 55 0
177 -46 0
177 -45 0
177 -48 0
-177 46 45 48 0
178 -47 0
178 -50 0
178 -49 0
-178 47 50 49 0
179 -54 0
179 -53 0
179 -25 0
179 -26 0
179 -23 0
179 -24 0
179 -21 0
179 -22 0
179 -19 0
179 -20 0
179 -17 0
-179 54 53 25 26 23 24 21 22 19 20 17 0
180 -54 0
180 -53 0
180 -25 0
180 -26 0
180 -23 0
180 -24 0
180 -21 0
180 -22 0
180 -19 0
180 -20 0
180 -17 0
-180 54 53 25 26 23 24 21 22 19 20 17 0
-181 176 0
-181 177 0
181 -176 -177 0
-182 177 0
-182 178 0
182 -177 -178 0
-183 178 0
-183 179 0
183 -178 -179 0
-184 259 0
-184 258 0
184 -259 -258 0
-185 257 0
-185 256 0
185 -257 -256 0
-186 228 0
-186 229 0
186 -228 -229 0
-187 226 0
-187 227 0
187 -226 -227 0
-188 204 0
-188 203 0
188 -204 -203 0
-189 202 0
-189 201 0
189 -202 -201 0
190 -6 0
190 -5 0
190 -8 0
-190 6 5 8 0
191 -90 0
191 -89 0
191 -86 0
191 -85 0
191 -4 0
191 -3 0
-191 90 89 86 85 4 3 0
192 -91 0
192 -93 0
192 -92 0
192 -88 0
192 -87 0
-192 91 93 92 88 87 0
-193 232 0
-193 233 0
193 -232 -233 0
-194 230 0
-194 231 0
194 -230 -231 0
195 -154 0
195 -155 0
-195 154 155 0
196 -184 0
196 -185 0
-196 184 185 0
197 -173 0
197 -172 0
-197 173 172 0
198 -156 0
198 -157 0
198 -158 0
198 -159 0
-198 156 157 158 159 0
199 -175 0
199 -174 0
-199 175 174 0
200 -171 0
200 -170 0
-200 171 170 0
201 -6 0
201 -5 0
201 -2 0
201 -1 0
201 -164 0
201 -165 0
201 -166 0
201 -167 0
201 -160 0
201 -161 0
201 -162 0
-201 6 5 2 1 164 165 166 167 160 161 162 0
202 -7 0
202 -10 0
202 -9 0
-202 7 10 9 0
203 -6 0
203 -5 0
203 -7 0
203 -2 0
203 -1 0
203 -164 0
203 -166 0
203 -167 0
203 -160 0
203 -161 0
203 -162 0
-203 6 5 7 2 1 164 166 167 160 161 162 0
204 -163 0
204 -168 0
-204 163 168 0
205 -33 0
205 -34 0
-205 33 34 0
206 -35 0
206 -36 0
-206 35 36 0
207 -133 0
207 -132 0
-207 133 132 0
208 -139 0
208 -138 0
-208 139 138 0
209 -75 0
209 -76 0
209 -135 0
209 -134 0
209 -137 0
-209 75 76 135 134 137 0
210 -136 0
210 -131 0
210 -130 0
-210 136 131 130 0
211 -14 0
211 -247 0
-211 14 247 0
212 -240 0
212 -119 0
212 -118 0
212 -79 0
-212 240 119 118 79 0
213 -237 0
213 -236 0
213 -239 0
-213 237 236 239 0
214 -181 0
214 -182 0
214 -183 0
-214 181 182 183 0
215 -192 0
215 -191 0
215 -190 0
215 -189 0
215 -188 0
215 -187 0
215 -186 0
215 -194 0
215 -193 0
215 -269 0
215 -268 0
215 -267 0
215 -266 0
215 -265 0
215 -264 0
215 -263 0
215 -262 0
215 -261 0
215 -260 0
215 -211 0
215 -212 0
215 -209 0
215 -210 0
215 -207 0
215 -208 0
215 -205 0
215 -206 0
215 -213 0
215 -214 0
215 -196 0
215 -195 0
215 -198 0
215 -197 0
215 -200 0
215 -199 0
-215 192 191 190 189 188 187 186 194 193 269 268 267 266 265 264 263 262 261 260 211 212 209 210 207 208 205 206 213 214 196 195 198 197 200 199 0
216 -6 0
216 -5 0
216 -166 0
216 -166 0
216 -160 0
216 -161 0
216 -162 0
-216 6 5 166 166 160 161 162 0
-217 115 0
-217 216 0
217 -115 -216 0
218 -6 0
218 -5 0
218 -166 0
218 -167 0
218 -160 0
218 -161 0
218 -162 0
-218 6 5 166 167 160 161 162 0
219 -113 0
219 -112 0
-219 113 112 0
220 -98 0
220 -99 0
220 -100 0
220 -101 0
220 -102 0
220 -103 0
-220 98 99 100 101 102 103 0
221 -108 0
221 -111 0
221 -110 0
221 -107 0
221 -106 0
-221 108 111 110 107 106 0
-222 97 0
-222 220 0
-222 269 0
222 -97 -220 -269 0
-223 114 0
-223 109 0
-223 221 0
223 -114 -109 -221 0
224 -94 0
224 -67 0
-224 94 67 0
225 -95 0
225 -70 0
225 -69 0
225 -68 0
-225 95 70 69 68 0
226 -164 0
226 -165 0
-226 164 165 0
227 -169 0
227 -147 0
227 -146 0
227 -145 0
227 -144 0
227 -143 0
227 -142 0
-227 169 147 146 145 144 143 142 0
228 -141 0
228 -140 0
228 -149 0
-228 141 140 149 0
229 -148 0
229 -122 0
-229 148 122 0
230 -167 0
230 -160 0
-230 167 160 0
231 -6 0
231 -5 0
231 -7 0
231 -2 0
231 -1 0
231 -166 0
231 -161 0
-231 6 5 7 2 1 166 161 0
232 -123 0
232 -120 0
232 -121 0
-232 123 120 121 0
233 -6 0
233 -5 0
233 -166 0
233 -167 0
233 -160 0
233 -161 0
233 -162 0
-233 6 5 166 167 160 161 162 0
234 -126 0
234 -127 0
234 -124 0
234 -125 0
234 -128 0
234 -129 0
-234 126 127 124 125 128 129 0
235 -6 0
235 -5 0
235 -166 0
235 -167 0
235 -160 0
235 -161 0
235 -162 0
-235 6 5 166 167 160 161 162 0
-236 238 0
-236 244 0
236 -238 -244 0
-237 238 0
-237 245 0
237 -238 -245 0
238 -29 0
238 -30 0
-238 29 30 0
-239 244 0
-239 180 0
239 -244 -180 0
-240 243 0
-240 242 0
240 -243 -242 0
241 -16 0
241 -15 0
241 -117 0
241 -116 0
-241 16 15 117 116 0
242 -78 0
242 -83 0
242 -84 0
242 -81 0
242 -82 0
-242 78 83 84 81 82 0
243 -80 0
243 -77 0
-243 80 77 0
244 -31 0
244 -32 0
-244 31 32 0
245 -27 0
245 -28 0
245 -62 0
245 -61 0
245 -60 0
245 -59 0
245 -58 0
245 -57 0
245 -56 0
245 -55 0
-245 27 28 62 61 60 59 58 57 56 55 0
246 -51 0
246 -52 0
246 -12 0
246 -11 0
-246 51 52 12 11 0
-247 13 0
-247 241 0
247 -13 -241 0
-248 249 0
-248 41 0
248 -249 -41 0
249 -94 0
249 -67 0
-249 94 67 0
250 -74 0
250 -73 0
250 -72 0
250 -71 0
250 -66 0
250 -65 0
250 -43 0
-250 74 73 72 71 66 65 43 0
251 -94 0
251 -67 0
-251 94 67 0
-252 253 0
-252 246 0
252 -253 -246 0
253 -51 0
253 -52 0
253 -12 0
253 -11 0
-253 51 52 12 11 0
254 -42 0
254 -39 0
254 -40 0
254 -37 0
-254 42 39 40 37 0
255 -94 0
255 -67 0
-255 94 67 0
256 -152 0
256 -153 0
-256 152 153 0
257 -105 0
257 -96 0
257 -38 0
257 -63 0
257 -150 0
257 -151 0
-257 105 96 38 63 150 151 0
258 -152 0
258 -153 0
-258 152 153 0
259 -105 0
259 -96 0
259 -38 0
259 -63 0
259 -150 0
259 -151 0
-259 105 96 38 63 150 151 0
260 -64 0
260 -252 0
-260 64 252 0
-261 254 0
-261 255 0
261 -254 -255 0
262 -248 0
262 -44 0
262 -67 0
-262 248 44 67 0
-263 250 0
-263 251 0
263 -250 -251 0
-264 225 0
-264 224 0
264 -225 -224 0
265 -104 0
265 -94 0
-265 104 94 0
266 -223 0
266 -222 0
-266 223 222 0
267 -217 0
267 -161 0
267 -162 0
-267 217 161 162 0
-268 219 0
-268 218 0
268 -219 -218 0
-269 234 0
-269 235 0
269 -234 -235 0
